(set-logic ALL)
(set-option :produce-models true)
(declare-sort BoundSet 0)
(declare-sort UnboundSet 0)
(declare-fun IsKickedUp (BoundSet) Bool)
(declare-fun IsOnFourWheeler (BoundSet) Bool)
(declare-fun IsClear (BoundSet) Bool)
(declare-fun IsNotRaining (BoundSet) Bool)
(assert (not (=> (exists ((b BoundSet)) (exists ((a BoundSet)) (and (IsKickedUp a) (IsOnFourWheeler b)))) (exists ((c BoundSet)) (exists ((d BoundSet)) (and (IsClear c) (not (IsNotRaining d))))))))
(check-sat)
(get-model)